# This file was generated by the deal.II library.
# Date =  2025/1/13
# Time =  3:17:23
#
# For a description of the UCD format see the AVS Developer's guide.
#
240 248 0 0 0
1  1 0 0
2  1 1 0
3  6.12323e-17 1 0
4  -1 1 0
5  -1 1.22465e-16 0
6  -1 -1 0
7  -1.83697e-16 -1 0
8  1 -1 0
9  0.5 0 0
10  0.353553 0.353553 0
11  3.06162e-17 0.5 0
12  -0.353553 0.353553 0
13  -0.5 6.12323e-17 0
14  -0.353553 -0.353553 0
15  -9.18485e-17 -0.5 0
16  0.353553 -0.353553 0
17  1 0.5 0
18  0.75 0 0
19  0.5 1 0
20  0.676777 0.676777 0
21  -0.5 1 0
22  4.59243e-17 0.75 0
23  -1 0.5 0
24  -0.676777 0.676777 0
25  -1 -0.5 0
26  -0.75 9.18485e-17 0
27  -0.5 -1 0
28  -0.676777 -0.676777 0
29  0.5 -1 0
30  -1.37773e-16 -0.75 0
31  1 -0.5 0
32  0.676777 -0.676777 0
33  0.46194 0.191342 0
34  0.191342 0.46194 0
35  -0.191342 0.46194 0
36  -0.46194 0.191342 0
37  -0.46194 -0.191342 0
38  -0.191342 -0.46194 0
39  0.191342 -0.46194 0
40  0.46194 -0.191342 0
41  0.73097 0.345671 0
42  0.345671 0.73097 0
43  -0.345671 0.73097 0
44  -0.73097 0.345671 0
45  -0.73097 -0.345671 0
46  -0.345671 -0.73097 0
47  0.345671 -0.73097 0
48  0.73097 -0.345671 0
49  0.625 0 0
50  0.515165 0.515165 0
51  3.82702e-17 0.625 0
52  -0.515165 0.515165 0
53  -0.625 7.65404e-17 0
54  -0.515165 -0.515165 0
55  -1.14811e-16 -0.625 0
56  0.515165 -0.515165 0
57  0.490393 0.0975452 0
58  0.415735 0.277785 0
59  0.277785 0.415735 0
60  0.0975452 0.490393 0
61  -0.0975452 0.490393 0
62  -0.277785 0.415735 0
63  -0.415735 0.277785 0
64  -0.490393 0.0975452 0
65  -0.490393 -0.0975452 0
66  -0.415735 -0.277785 0
67  -0.277785 -0.415735 0
68  -0.0975452 -0.490393 0
69  0.0975452 -0.490393 0
70  0.277785 -0.415735 0
71  0.415735 -0.277785 0
72  0.490393 -0.0975452 0
73  0.596455 0.268506 0
74  0.740485 0.172835 0
75  0.703873 0.511224 0
76  0.268506 0.596455 0
77  0.511224 0.703873 0
78  0.172835 0.740485 0
79  -0.268506 0.596455 0
80  -0.172835 0.740485 0
81  -0.511224 0.703873 0
82  -0.596455 0.268506 0
83  -0.703873 0.511224 0
84  -0.740485 0.172835 0
85  -0.596455 -0.268506 0
86  -0.740485 -0.172835 0
87  -0.703873 -0.511224 0
88  -0.268506 -0.596455 0
89  -0.511224 -0.703873 0
90  -0.172835 -0.740485 0
91  0.268506 -0.596455 0
92  0.172835 -0.740485 0
93  0.511224 -0.703873 0
94  0.596455 -0.268506 0
95  0.703873 -0.511224 0
96  0.740485 -0.172835 0
97  0.615439 0.13519 0
98  0.559804 0.394504 0
99  0.394504 0.559804 0
100  0.13519 0.615439 0
101  -0.13519 0.615439 0
102  -0.394504 0.559804 0
103  -0.559804 0.394504 0
104  -0.615439 0.13519 0
105  -0.615439 -0.13519 0
106  -0.559804 -0.394504 0
107  -0.394504 -0.559804 0
108  -0.13519 -0.615439 0
109  0.13519 -0.615439 0
110  0.394504 -0.559804 0
111  0.559804 -0.394504 0
112  0.615439 -0.13519 0
113  0.5625 0 0
114  0.434359 0.434359 0
115  3.44432e-17 0.5625 0
116  -0.434359 0.434359 0
117  -0.5625 6.88864e-17 0
118  -0.434359 -0.434359 0
119  -1.0333e-16 -0.5625 0
120  0.434359 -0.434359 0
121  0.497592 0.0490086 0
122  0.47847 0.145142 0
123  0.440961 0.235698 0
124  0.386505 0.317197 0
125  0.317197 0.386505 0
126  0.235698 0.440961 0
127  0.145142 0.47847 0
128  0.0490086 0.497592 0
129  -0.0490086 0.497592 0
130  -0.145142 0.47847 0
131  -0.235698 0.440961 0
132  -0.317197 0.386505 0
133  -0.386505 0.317197 0
134  -0.440961 0.235698 0
135  -0.47847 0.145142 0
136  -0.497592 0.0490086 0
137  -0.497592 -0.0490086 0
138  -0.47847 -0.145142 0
139  -0.440961 -0.235698 0
140  -0.386505 -0.317197 0
141  -0.317197 -0.386505 0
142  -0.235698 -0.440961 0
143  -0.145142 -0.47847 0
144  -0.0490086 -0.497592 0
145  0.0490086 -0.497592 0
146  0.145142 -0.47847 0
147  0.235698 -0.440961 0
148  0.317197 -0.386505 0
149  0.386505 -0.317197 0
150  0.440961 -0.235698 0
151  0.47847 -0.145142 0
152  0.497592 -0.0490086 0
153  0.529197 0.229924 0
154  0.229924 0.529197 0
155  -0.229924 0.529197 0
156  -0.529197 0.229924 0
157  -0.529197 -0.229924 0
158  -0.229924 -0.529197 0
159  0.229924 -0.529197 0
160  0.529197 -0.229924 0
161  0.552916 0.116368 0
162  0.620219 0.0675951 0
163  0.605947 0.201848 0
164  0.487769 0.336145 0
165  0.578129 0.331505 0
166  0.537485 0.454835 0
167  0.336145 0.487769 0
168  0.454835 0.537485 0
169  0.331505 0.578129 0
170  0.116368 0.552916 0
171  0.201848 0.605947 0
172  0.0675951 0.620219 0
173  -0.116368 0.552916 0
174  -0.0675951 0.620219 0
175  -0.201848 0.605947 0
176  -0.336145 0.487769 0
177  -0.331505 0.578129 0
178  -0.454835 0.537485 0
179  -0.487769 0.336145 0
180  -0.537485 0.454835 0
181  -0.578129 0.331505 0
182  -0.552916 0.116368 0
183  -0.605947 0.201848 0
184  -0.620219 0.0675951 0
185  -0.552916 -0.116368 0
186  -0.620219 -0.0675951 0
187  -0.605947 -0.201848 0
188  -0.487769 -0.336145 0
189  -0.578129 -0.331505 0
190  -0.537485 -0.454835 0
191  -0.336145 -0.487769 0
192  -0.454835 -0.537485 0
193  -0.331505 -0.578129 0
194  -0.116368 -0.552916 0
195  -0.201848 -0.605947 0
196  -0.0675951 -0.620219 0
197  0.116368 -0.552916 0
198  0.0675951 -0.620219 0
199  0.201848 -0.605947 0
200  0.336145 -0.487769 0
201  0.331505 -0.578129 0
202  0.454835 -0.537485 0
203  0.487769 -0.336145 0
204  0.537485 -0.454835 0
205  0.578129 -0.331505 0
206  0.552916 -0.116368 0
207  0.605947 -0.201848 0
208  0.620219 -0.0675951 0
209  0.558906 0.0583019 0
210  0.542208 0.173495 0
211  0.509545 0.283602 0
212  0.461995 0.386016 0
213  0.386016 0.461995 0
214  0.283602 0.509545 0
215  0.173495 0.542208 0
216  0.0583019 0.558906 0
217  -0.0583019 0.558906 0
218  -0.173495 0.542208 0
219  -0.283602 0.509545 0
220  -0.386016 0.461995 0
221  -0.461995 0.386016 0
222  -0.509545 0.283602 0
223  -0.542208 0.173495 0
224  -0.558906 0.0583019 0
225  -0.558906 -0.0583019 0
226  -0.542208 -0.173495 0
227  -0.509545 -0.283602 0
228  -0.461995 -0.386016 0
229  -0.386016 -0.461995 0
230  -0.283602 -0.509545 0
231  -0.173495 -0.542208 0
232  -0.0583019 -0.558906 0
233  0.0583019 -0.558906 0
234  0.173495 -0.542208 0
235  0.283602 -0.509545 0
236  0.386016 -0.461995 0
237  0.461995 -0.386016 0
238  0.509545 -0.283602 0
239  0.542208 -0.173495 0
240  0.558906 -0.0583019 0
1 0 quad    1 17 41 18 
2 0 quad    17 2 20 41 
3 0 quad    2 19 42 20 
4 0 quad    19 3 22 42 
5 0 quad    3 21 43 22 
6 0 quad    21 4 24 43 
7 0 quad    4 23 44 24 
8 0 quad    23 5 26 44 
9 0 quad    5 25 45 26 
10 0 quad    25 6 28 45 
11 0 quad    6 27 46 28 
12 0 quad    27 7 30 46 
13 0 quad    7 29 47 30 
14 0 quad    29 8 32 47 
15 0 quad    8 31 48 32 
16 0 quad    31 1 18 48 
17 0 quad    18 74 97 49 
18 0 quad    74 41 73 97 
19 0 quad    41 75 98 73 
20 0 quad    75 20 50 98 
21 0 quad    20 77 99 50 
22 0 quad    77 42 76 99 
23 0 quad    42 78 100 76 
24 0 quad    78 22 51 100 
25 0 quad    22 80 101 51 
26 0 quad    80 43 79 101 
27 0 quad    43 81 102 79 
28 0 quad    81 24 52 102 
29 0 quad    24 83 103 52 
30 0 quad    83 44 82 103 
31 0 quad    44 84 104 82 
32 0 quad    84 26 53 104 
33 0 quad    26 86 105 53 
34 0 quad    86 45 85 105 
35 0 quad    45 87 106 85 
36 0 quad    87 28 54 106 
37 0 quad    28 89 107 54 
38 0 quad    89 46 88 107 
39 0 quad    46 90 108 88 
40 0 quad    90 30 55 108 
41 0 quad    30 92 109 55 
42 0 quad    92 47 91 109 
43 0 quad    47 93 110 91 
44 0 quad    93 32 56 110 
45 0 quad    32 95 111 56 
46 0 quad    95 48 94 111 
47 0 quad    48 96 112 94 
48 0 quad    96 18 49 112 
49 0 quad    49 162 209 113 
50 0 quad    162 97 161 209 
51 0 quad    113 209 121 9 
52 0 quad    209 161 57 121 
53 0 quad    97 163 210 161 
54 0 quad    163 73 153 210 
55 0 quad    161 210 122 57 
56 0 quad    210 153 33 122 
57 0 quad    73 165 211 153 
58 0 quad    165 98 164 211 
59 0 quad    153 211 123 33 
60 0 quad    211 164 58 123 
61 0 quad    98 166 212 164 
62 0 quad    166 50 114 212 
63 0 quad    164 212 124 58 
64 0 quad    212 114 10 124 
65 0 quad    50 168 213 114 
66 0 quad    168 99 167 213 
67 0 quad    114 213 125 10 
68 0 quad    213 167 59 125 
69 0 quad    99 169 214 167 
70 0 quad    169 76 154 214 
71 0 quad    167 214 126 59 
72 0 quad    214 154 34 126 
73 0 quad    76 171 215 154 
74 0 quad    171 100 170 215 
75 0 quad    154 215 127 34 
76 0 quad    215 170 60 127 
77 0 quad    100 172 216 170 
78 0 quad    172 51 115 216 
79 0 quad    170 216 128 60 
80 0 quad    216 115 11 128 
81 0 quad    51 174 217 115 
82 0 quad    174 101 173 217 
83 0 quad    115 217 129 11 
84 0 quad    217 173 61 129 
85 0 quad    101 175 218 173 
86 0 quad    175 79 155 218 
87 0 quad    173 218 130 61 
88 0 quad    218 155 35 130 
89 0 quad    79 177 219 155 
90 0 quad    177 102 176 219 
91 0 quad    155 219 131 35 
92 0 quad    219 176 62 131 
93 0 quad    102 178 220 176 
94 0 quad    178 52 116 220 
95 0 quad    176 220 132 62 
96 0 quad    220 116 12 132 
97 0 quad    52 180 221 116 
98 0 quad    180 103 179 221 
99 0 quad    116 221 133 12 
100 0 quad    221 179 63 133 
101 0 quad    103 181 222 179 
102 0 quad    181 82 156 222 
103 0 quad    179 222 134 63 
104 0 quad    222 156 36 134 
105 0 quad    82 183 223 156 
106 0 quad    183 104 182 223 
107 0 quad    156 223 135 36 
108 0 quad    223 182 64 135 
109 0 quad    104 184 224 182 
110 0 quad    184 53 117 224 
111 0 quad    182 224 136 64 
112 0 quad    224 117 13 136 
113 0 quad    53 186 225 117 
114 0 quad    186 105 185 225 
115 0 quad    117 225 137 13 
116 0 quad    225 185 65 137 
117 0 quad    105 187 226 185 
118 0 quad    187 85 157 226 
119 0 quad    185 226 138 65 
120 0 quad    226 157 37 138 
121 0 quad    85 189 227 157 
122 0 quad    189 106 188 227 
123 0 quad    157 227 139 37 
124 0 quad    227 188 66 139 
125 0 quad    106 190 228 188 
126 0 quad    190 54 118 228 
127 0 quad    188 228 140 66 
128 0 quad    228 118 14 140 
129 0 quad    54 192 229 118 
130 0 quad    192 107 191 229 
131 0 quad    118 229 141 14 
132 0 quad    229 191 67 141 
133 0 quad    107 193 230 191 
134 0 quad    193 88 158 230 
135 0 quad    191 230 142 67 
136 0 quad    230 158 38 142 
137 0 quad    88 195 231 158 
138 0 quad    195 108 194 231 
139 0 quad    158 231 143 38 
140 0 quad    231 194 68 143 
141 0 quad    108 196 232 194 
142 0 quad    196 55 119 232 
143 0 quad    194 232 144 68 
144 0 quad    232 119 15 144 
145 0 quad    55 198 233 119 
146 0 quad    198 109 197 233 
147 0 quad    119 233 145 15 
148 0 quad    233 197 69 145 
149 0 quad    109 199 234 197 
150 0 quad    199 91 159 234 
151 0 quad    197 234 146 69 
152 0 quad    234 159 39 146 
153 0 quad    91 201 235 159 
154 0 quad    201 110 200 235 
155 0 quad    159 235 147 39 
156 0 quad    235 200 70 147 
157 0 quad    110 202 236 200 
158 0 quad    202 56 120 236 
159 0 quad    200 236 148 70 
160 0 quad    236 120 16 148 
161 0 quad    56 204 237 120 
162 0 quad    204 111 203 237 
163 0 quad    120 237 149 16 
164 0 quad    237 203 71 149 
165 0 quad    111 205 238 203 
166 0 quad    205 94 160 238 
167 0 quad    203 238 150 71 
168 0 quad    238 160 40 150 
169 0 quad    94 207 239 160 
170 0 quad    207 112 206 239 
171 0 quad    160 239 151 40 
172 0 quad    239 206 72 151 
173 0 quad    112 208 240 206 
174 0 quad    208 49 113 240 
175 0 quad    206 240 152 72 
176 0 quad    240 113 9 152 
177  6  line    1 17 
178  6  line    17 2 
179  5  line    4 23 
180  5  line    23 5 
181  5  line    5 25 
182  5  line    25 6 
183  6  line    8 31 
184  6  line    31 1 
185  1  line    9 121 
186  1  line    121 57 
187  1  line    57 122 
188  1  line    122 33 
189  1  line    33 123 
190  1  line    123 58 
191  1  line    58 124 
192  1  line    124 10 
193  1  line    10 125 
194  1  line    125 59 
195  1  line    59 126 
196  1  line    126 34 
197  1  line    34 127 
198  1  line    127 60 
199  1  line    60 128 
200  1  line    128 11 
201  1  line    11 129 
202  1  line    129 61 
203  1  line    61 130 
204  1  line    130 35 
205  1  line    35 131 
206  1  line    131 62 
207  1  line    62 132 
208  1  line    132 12 
209  1  line    12 133 
210  1  line    133 63 
211  1  line    63 134 
212  1  line    134 36 
213  1  line    36 135 
214  1  line    135 64 
215  1  line    64 136 
216  1  line    136 13 
217  1  line    13 137 
218  1  line    137 65 
219  1  line    65 138 
220  1  line    138 37 
221  1  line    37 139 
222  1  line    139 66 
223  1  line    66 140 
224  1  line    140 14 
225  1  line    14 141 
226  1  line    141 67 
227  1  line    67 142 
228  1  line    142 38 
229  1  line    38 143 
230  1  line    143 68 
231  1  line    68 144 
232  1  line    144 15 
233  1  line    15 145 
234  1  line    145 69 
235  1  line    69 146 
236  1  line    146 39 
237  1  line    39 147 
238  1  line    147 70 
239  1  line    70 148 
240  1  line    148 16 
241  1  line    16 149 
242  1  line    149 71 
243  1  line    71 150 
244  1  line    150 40 
245  1  line    40 151 
246  1  line    151 72 
247  1  line    72 152 
248  1  line    152 9 
