# This file was generated by the deal.II library.
# Date =  2025/1/13
# Time =  3: 1:37
#
# For a description of the UCD format see the AVS Developer's guide.
#
112 120 0 0 0
1  1 0 0
2  1 1 0
3  6.12323e-17 1 0
4  -1 1 0
5  -1 1.22465e-16 0
6  -1 -1 0
7  -1.83697e-16 -1 0
8  1 -1 0
9  0.5 0 0
10  0.353553 0.353553 0
11  3.06162e-17 0.5 0
12  -0.353553 0.353553 0
13  -0.5 6.12323e-17 0
14  -0.353553 -0.353553 0
15  -9.18485e-17 -0.5 0
16  0.353553 -0.353553 0
17  1 0.5 0
18  0.75 0 0
19  0.5 1 0
20  0.676777 0.676777 0
21  -0.5 1 0
22  4.59243e-17 0.75 0
23  -1 0.5 0
24  -0.676777 0.676777 0
25  -1 -0.5 0
26  -0.75 9.18485e-17 0
27  -0.5 -1 0
28  -0.676777 -0.676777 0
29  0.5 -1 0
30  -1.37773e-16 -0.75 0
31  1 -0.5 0
32  0.676777 -0.676777 0
33  0.46194 0.191342 0
34  0.191342 0.46194 0
35  -0.191342 0.46194 0
36  -0.46194 0.191342 0
37  -0.46194 -0.191342 0
38  -0.191342 -0.46194 0
39  0.191342 -0.46194 0
40  0.46194 -0.191342 0
41  0.73097 0.345671 0
42  0.345671 0.73097 0
43  -0.345671 0.73097 0
44  -0.73097 0.345671 0
45  -0.73097 -0.345671 0
46  -0.345671 -0.73097 0
47  0.345671 -0.73097 0
48  0.73097 -0.345671 0
49  0.625 0 0
50  0.515165 0.515165 0
51  3.82702e-17 0.625 0
52  -0.515165 0.515165 0
53  -0.625 7.65404e-17 0
54  -0.515165 -0.515165 0
55  -1.14811e-16 -0.625 0
56  0.515165 -0.515165 0
57  0.490393 0.0975452 0
58  0.415735 0.277785 0
59  0.277785 0.415735 0
60  0.0975452 0.490393 0
61  -0.0975452 0.490393 0
62  -0.277785 0.415735 0
63  -0.415735 0.277785 0
64  -0.490393 0.0975452 0
65  -0.490393 -0.0975452 0
66  -0.415735 -0.277785 0
67  -0.277785 -0.415735 0
68  -0.0975452 -0.490393 0
69  0.0975452 -0.490393 0
70  0.277785 -0.415735 0
71  0.415735 -0.277785 0
72  0.490393 -0.0975452 0
73  0.596455 0.268506 0
74  0.740485 0.172835 0
75  0.703873 0.511224 0
76  0.268506 0.596455 0
77  0.511224 0.703873 0
78  0.172835 0.740485 0
79  -0.268506 0.596455 0
80  -0.172835 0.740485 0
81  -0.511224 0.703873 0
82  -0.596455 0.268506 0
83  -0.703873 0.511224 0
84  -0.740485 0.172835 0
85  -0.596455 -0.268506 0
86  -0.740485 -0.172835 0
87  -0.703873 -0.511224 0
88  -0.268506 -0.596455 0
89  -0.511224 -0.703873 0
90  -0.172835 -0.740485 0
91  0.268506 -0.596455 0
92  0.172835 -0.740485 0
93  0.511224 -0.703873 0
94  0.596455 -0.268506 0
95  0.703873 -0.511224 0
96  0.740485 -0.172835 0
97  0.615439 0.13519 0
98  0.559804 0.394504 0
99  0.394504 0.559804 0
100  0.13519 0.615439 0
101  -0.13519 0.615439 0
102  -0.394504 0.559804 0
103  -0.559804 0.394504 0
104  -0.615439 0.13519 0
105  -0.615439 -0.13519 0
106  -0.559804 -0.394504 0
107  -0.394504 -0.559804 0
108  -0.13519 -0.615439 0
109  0.13519 -0.615439 0
110  0.394504 -0.559804 0
111  0.559804 -0.394504 0
112  0.615439 -0.13519 0
1 0 quad    1 17 41 18 
2 0 quad    17 2 20 41 
3 0 quad    2 19 42 20 
4 0 quad    19 3 22 42 
5 0 quad    3 21 43 22 
6 0 quad    21 4 24 43 
7 0 quad    4 23 44 24 
8 0 quad    23 5 26 44 
9 0 quad    5 25 45 26 
10 0 quad    25 6 28 45 
11 0 quad    6 27 46 28 
12 0 quad    27 7 30 46 
13 0 quad    7 29 47 30 
14 0 quad    29 8 32 47 
15 0 quad    8 31 48 32 
16 0 quad    31 1 18 48 
17 0 quad    18 74 97 49 
18 0 quad    74 41 73 97 
19 0 quad    49 97 57 9 
20 0 quad    97 73 33 57 
21 0 quad    41 75 98 73 
22 0 quad    75 20 50 98 
23 0 quad    73 98 58 33 
24 0 quad    98 50 10 58 
25 0 quad    20 77 99 50 
26 0 quad    77 42 76 99 
27 0 quad    50 99 59 10 
28 0 quad    99 76 34 59 
29 0 quad    42 78 100 76 
30 0 quad    78 22 51 100 
31 0 quad    76 100 60 34 
32 0 quad    100 51 11 60 
33 0 quad    22 80 101 51 
34 0 quad    80 43 79 101 
35 0 quad    51 101 61 11 
36 0 quad    101 79 35 61 
37 0 quad    43 81 102 79 
38 0 quad    81 24 52 102 
39 0 quad    79 102 62 35 
40 0 quad    102 52 12 62 
41 0 quad    24 83 103 52 
42 0 quad    83 44 82 103 
43 0 quad    52 103 63 12 
44 0 quad    103 82 36 63 
45 0 quad    44 84 104 82 
46 0 quad    84 26 53 104 
47 0 quad    82 104 64 36 
48 0 quad    104 53 13 64 
49 0 quad    26 86 105 53 
50 0 quad    86 45 85 105 
51 0 quad    53 105 65 13 
52 0 quad    105 85 37 65 
53 0 quad    45 87 106 85 
54 0 quad    87 28 54 106 
55 0 quad    85 106 66 37 
56 0 quad    106 54 14 66 
57 0 quad    28 89 107 54 
58 0 quad    89 46 88 107 
59 0 quad    54 107 67 14 
60 0 quad    107 88 38 67 
61 0 quad    46 90 108 88 
62 0 quad    90 30 55 108 
63 0 quad    88 108 68 38 
64 0 quad    108 55 15 68 
65 0 quad    30 92 109 55 
66 0 quad    92 47 91 109 
67 0 quad    55 109 69 15 
68 0 quad    109 91 39 69 
69 0 quad    47 93 110 91 
70 0 quad    93 32 56 110 
71 0 quad    91 110 70 39 
72 0 quad    110 56 16 70 
73 0 quad    32 95 111 56 
74 0 quad    95 48 94 111 
75 0 quad    56 111 71 16 
76 0 quad    111 94 40 71 
77 0 quad    48 96 112 94 
78 0 quad    96 18 49 112 
79 0 quad    94 112 72 40 
80 0 quad    112 49 9 72 
81  6  line    1 17 
82  6  line    17 2 
83  5  line    4 23 
84  5  line    23 5 
85  5  line    5 25 
86  5  line    25 6 
87  6  line    8 31 
88  6  line    31 1 
89  1  line    9 57 
90  1  line    57 33 
91  1  line    33 58 
92  1  line    58 10 
93  1  line    10 59 
94  1  line    59 34 
95  1  line    34 60 
96  1  line    60 11 
97  1  line    11 61 
98  1  line    61 35 
99  1  line    35 62 
100  1  line    62 12 
101  1  line    12 63 
102  1  line    63 36 
103  1  line    36 64 
104  1  line    64 13 
105  1  line    13 65 
106  1  line    65 37 
107  1  line    37 66 
108  1  line    66 14 
109  1  line    14 67 
110  1  line    67 38 
111  1  line    38 68 
112  1  line    68 15 
113  1  line    15 69 
114  1  line    69 39 
115  1  line    39 70 
116  1  line    70 16 
117  1  line    16 71 
118  1  line    71 40 
119  1  line    40 72 
120  1  line    72 9 
